data/CVRPLIB/Vrp-Set-XML100/instances/XML100_1111_22.vrp
NAME : XML100_1111_22
COMMENT : Generated by Queiroga, Sadykov, Uchoa, and Vidal (2021)
TYPE : CVRP
DIMENSION : 101
EDGE_WEIGHT_TYPE : EUC_2D
CAPACITY : 3
NODE_COORD_SECTION
1    23   999 
2    352  118 
3    276  97  
4    609  943 
5    925  834 
6    687  807 
7    513  188 
8    411  828 
9    647  201 
10   694  52  
11   297  596 
12   974  190 
13   535  139 
14   938  774 
15   867  180 
16   153  558 
17   635  340 
18   434  269 
19   953  512 
20   374  583 
21   818  9   
22   409  661 
23   380  236 
24   18   500 
25   643  354 
26   656  195 
27   191  37  
28   849  33  
29   708  48  
30   685  924 
31   171  692 
32   697  818 
33   175  803 
34   652  345 
35   992  744 
36   21   949 
37   362  849 
38   278  159 
39   666  157 
40   249  230 
41   312  781 
42   955  651 
43   893  551 
44   699  612 
45   547  349 
46   668  185 
47   917  307 
48   258  957 
49   718  464 
50   865  599 
51   604  42  
52   41   968 
53   847  499 
54   216  255 
55   401  96  
56   380  640 
57   826  98  
58   896  171 
59   960  319 
60   344  735 
61   49   532 
62   921  461 
63   962  566 
64   406  875 
65   328  357 
66   56   499 
67   762  387 
68   673  528 
69   470  207 
70   839  510 
71   184  120 
72   784  820 
73   38   378 
74   535  796 
75   518  970 
76   850  583 
77   403  930 
78   890  231 
79   487  29  
80   882  590 
81   88   997 
82   203  490 
83   266  65  
84   473  727 
85   382  751 
86   66   178 
87   767  4   
88   601  933 
89   527  768 
90   632  986 
91   543  433 
92   161  50  
93   32   926 
94   356  432 
95   506  517 
96   847  233 
97   524  585 
98   142  826 
99   890  646 
100  342  864 
101  310  190 
DEMAND_SECTION
1    0   
2    1   
3    1   
4    1   
5    1   
6    1   
7    1   
8    1   
9    1   
10   1   
11   1   
12   1   
13   1   
14   1   
15   1   
16   1   
17   1   
18   1   
19   1   
20   1   
21   1   
22   1   
23   1   
24   1   
25   1   
26   1   
27   1   
28   1   
29   1   
30   1   
31   1   
32   1   
33   1   
34   1   
35   1   
36   1   
37   1   
38   1   
39   1   
40   1   
41   1   
42   1   
43   1   
44   1   
45   1   
46   1   
47   1   
48   1   
49   1   
50   1   
51   1   
52   1   
53   1   
54   1   
55   1   
56   1   
57   1   
58   1   
59   1   
60   1   
61   1   
62   1   
63   1   
64   1   
65   1   
66   1   
67   1   
68   1   
69   1   
70   1   
71   1   
72   1   
73   1   
74   1   
75   1   
76   1   
77   1   
78   1   
79   1   
80   1   
81   1   
82   1   
83   1   
84   1   
85   1   
86   1   
87   1   
88   1   
89   1   
90   1   
91   1   
92   1   
93   1   
94   1   
95   1   
96   1   
97   1   
98   1   
99   1   
100  1   
101  1   
DEPOT_SECTION
1
-1
EOF
